50 8
462 649
382 720
638 430
611 203
306 661
171 523
798 474
104 453
463 707
474 870
111 349
683 435
578 927
643 127
882 401
648 980
762 25
819 358
666 286
578 287
813 136
232 618
791 177
854 261
221 694
277 142
405 821
550 209
694 11
464 626
569 650
410 274
443 690
151 657
501 753
434 653
374 827
660 971
473 914
290 546
107 294
334 702
869 378
585 135
412 516
124 342
834 411
612 430
614 198
533 162
